\ENCODING=ISO-8859-1
\Problem name: 

Minimize
 obj: 18 x_4_4 + 36 x_4_4 + 54 x_4_4 + 72 x_4_4 + 18 x_4_4 + 18 x_4_4
      + 36 x_4_4 + 54 x_4_4 + 36 x_4_4 + 18 x_4_4 + 18 x_4_4 + 36 x_4_4
      + 54 x_4_4 + 36 x_4_4 + 18 x_4_4 + 18 x_4_4 + 72 x_4_4 + 54 x_4_4
      + 36 x_4_4 + 18 x_4_4
Subject To
 c1:  x_4_4  = 1
 c2:  x_4_4  = 1
 c3:  x_4_4  = 1
 c4:  x_4_4  = 1
 c5:  x_4_4  = 1
 c6:  x_4_4  = 1
 c7:  x_4_4  = 1
 c8:  x_4_4  = 1
 c9:  x_4_4  = 1
 c10: x_4_4  = 1
 c11: x_4_4 + x_4_4 + x_4_4 + x_4_4 + x_4_4 + x_4_4 + x_4_4 + x_4_4 + x_4_4
      + x_4_4 + x_4_4 + x_4_4 + x_4_4 + x_4_4 + x_4_4 + x_4_4 + x_4_4 + x_4_4
      + x_4_4 + x_4_4 + x_4_4 + x_4_4 + x_4_4 + x_4_4 + x_4_4 + x_4_4 + x_4_4
      + x_4_4 + x_4_4 + x_4_4 + x_4_4 + x_4_4 + x_4_4 + x_4_4 + x_4_4 + x_4_4
      + x_4_4 + x_4_4 + x_4_4 + x_4_4 + x_4_4 + x_4_4 + x_4_4 + x_4_4 + x_4_4
      + x_4_4 + x_4_4 + x_4_4 + x_4_4 + x_4_4 <= 9
Bounds
 0 <= x_4_4 <= 1
 0 <= x_4_4 <= 1
 0 <= x_4_4 <= 1
 0 <= x_4_4 <= 1
 0 <= x_4_4 <= 1
 0 <= x_4_4 <= 1
 0 <= x_4_4 <= 1
 0 <= x_4_4 <= 1
 0 <= x_4_4 <= 1
 0 <= x_4_4 <= 1
 0 <= x_4_4 <= 1
 0 <= x_4_4 <= 1
 0 <= x_4_4 <= 1
 0 <= x_4_4 <= 1
 0 <= x_4_4 <= 1
 0 <= x_4_4 <= 1
 0 <= x_4_4 <= 1
 0 <= x_4_4 <= 1
 0 <= x_4_4 <= 1
 0 <= x_4_4 <= 1
 0 <= x_4_4 <= 1
 0 <= x_4_4 <= 1
 0 <= x_4_4 <= 1
 0 <= x_4_4 <= 1
 0 <= x_4_4 <= 1
Binaries
 x_4_4  x_4_4  x_4_4  x_4_4  x_4_4  x_4_4  x_4_4  x_4_4  x_4_4  x_4_4  x_4_4 
 x_4_4  x_4_4  x_4_4  x_4_4  x_4_4  x_4_4  x_4_4  x_4_4  x_4_4  x_4_4  x_4_4 
 x_4_4  x_4_4  x_4_4 
End
